c Instancia generada aleatoriamente
p edge 30 109
e 1 6
e 1 8
e 1 13
e 1 22
e 1 23
e 1 24
e 1 26
e 1 27
e 1 28
e 2 3
e 2 8
e 2 12
e 2 15
e 2 21
e 2 24
e 2 26
e 2 30
e 3 5
e 3 7
e 3 8
e 3 12
e 3 16
e 3 17
e 3 22
e 3 26
e 4 5
e 4 16
e 4 17
e 4 18
e 4 19
e 4 20
e 4 27
e 4 30
e 5 8
e 5 12
e 5 20
e 5 24
e 5 25
e 5 28
e 6 7
e 6 13
e 6 17
e 6 18
e 6 21
e 6 24
e 7 8
e 7 10
e 7 11
e 7 12
e 7 23
e 7 25
e 7 26
e 7 27
e 8 12
e 8 17
e 8 18
e 8 27
e 9 10
e 9 15
e 9 20
e 9 23
e 9 26
e 9 29
e 10 13
e 10 14
e 10 15
e 10 26
e 10 28
e 11 20
e 12 15
e 12 21
e 12 27
e 12 30
e 13 14
e 13 19
e 14 15
e 14 18
e 14 19
e 14 23
e 14 25
e 15 17
e 15 21
e 15 22
e 15 23
e 15 24
e 15 28
e 15 30
e 16 19
e 16 27
e 16 29
e 17 18
e 17 25
e 17 27
e 17 30
e 18 21
e 19 21
e 19 27
e 19 28
e 20 22
e 20 30
e 21 22
e 22 26
e 23 24
e 23 26
e 24 25
e 25 27
e 25 30
e 27 30
e 29 30
